200
120
100
98
97
97
97
96
96
96
96
96
95
94
93
93
93
92
92
92
91
90
90
90
90
90
89
89
88
88
87
87
86
85
84
84
82
82
81
81
80
79
79
77
75
75
75
75
73
73
72
72
71
71
71
71
71
70
70
69
69
69
69
68
68
67
67
66
66
65
65
65
64
62
62
62
60
59
59
59
59
58
58
58
57
57
56
55
55
55
54
54
53
53
53
53
52
52
51
50
50
48
47
47
46
46
46
45
44
44
43
43
42
41
41
41
41
40
40
39
39
39
37
37
36
36
36
35
33
32
32
32
32
32
31
31
31
31
30
30
30
29
29
28
27
26
26
26
25
25
25
25
24
24
24
22
22
21
20
20
19
18
18
18
17
15
15
15
15
14
14
13
12
12
12
11
10
10
10
10
10
9
8
8
8
8
8
8
7
7
6
6
5
5
5
5
5
4
4
4
2
2
